column=10;
row=10;
Board=[|1,0,0,0,1,0,0,4,0,0|0,0,0,0,0,0,0,0,0,0|0,0,3,0,0,0,4,6,5,0|1,0,0,0,0,0,0,0,0,0|0,0,0,4,0,0,5,0,4,0|4,0,0,0,0,0,0,0,0,0|0,0,0,0,0,0,0,0,0,0|0,0,0,0,0,0,0,0,0,0|0,0,0,0,0,0,0,0,0,0|0,0,0,0,0,0,0,0,0,0|];
Lighthouse=[|-1,-1,-1,-1,-1,-1,-1,-1,-1,-1|-1,-1,-1,-1,-1,-1,-1,-1,-1,-1|-1,-1,-1,-1,-1,-1,-1,-1,-1,-1|-1,-1,-1,-1,-1,-1,-1,-1,-1,-1|-1,-1,-1,-1,-1,-1,-1,-1,-1,-1|-1,-1,-1,-1,-1,-1,-1,-1,-1,-1|-1,-1,-1,1,-1,1,2,-1,-1,1|-1,-1,-1,1,3,1,2,2,3,1|-1,1,3,-1,-1,1,-1,2,3,1|3,-1,-1,1,3,1,2,2,3,1|];
